;; produced by z3_gnatprove.drv ;;
(set-info :smt-lib-version 2.5)
(set-info :source |VC generated by SPARK 2014|)
(set-info :category industrial)
(set-info :status unknown)
;;; generated by SMT-LIB2 driver
;;; SMT-LIB2 driver: bit-vectors, common part
;;; SMT-LIB2: integer arithmetic
(declare-sort string 0)

(declare-datatypes () ((tuple0 (Tuple0))))
(declare-sort us_private 0)

(declare-fun private__bool_eq (us_private us_private) Bool)

(declare-const us_null_ext__ us_private)

(declare-sort us_type_of_heap 0)

(declare-datatypes ()
((us_type_of_heap__ref
 (us_type_of_heap__refqtmk (us_type_of_heap__content us_type_of_heap)))))
(declare-sort us_image 0)

(declare-datatypes () ((int__ref (int__refqtmk (int__content Int)))))
(declare-datatypes () ((bool__ref (bool__refqtmk (bool__content Bool)))))
(declare-datatypes ()
((us_fixed__ref (us_fixed__refqtmk (us_fixed__content Int)))))
(declare-datatypes () ((real__ref (real__refqtmk (real__content Real)))))
(declare-datatypes ()
((us_private__ref (us_private__refqtmk (us_private__content us_private)))))
(define-fun int__ref___projection ((a int__ref)) Int (int__content a))

(define-fun us_fixed__ref___projection ((a us_fixed__ref)) Int (us_fixed__content
                                                               a))

(define-fun bool__ref___projection ((a bool__ref)) Bool (bool__content a))

(define-fun real__ref___projection ((a real__ref)) Real (real__content a))

(define-fun us_private__ref___projection ((a us_private__ref)) us_private 
  (us_private__content a))

(declare-sort us_main_type 0)

(declare-fun us_main_eq (us_main_type us_main_type) Bool)

(declare-sort us_rep 0)

(declare-fun bool_eq (us_rep us_rep) Bool)

(declare-const value__size Int)

(declare-const object__size Int)

(declare-const alignment Int)

;; value__size_axiom
  (assert (<= 0 value__size))

;; object__size_axiom
  (assert (<= 0 object__size))

;; alignment_axiom
  (assert (<= 0 alignment))

(declare-fun user_eq (us_rep us_rep) Bool)

(declare-const dummy us_rep)

(declare-datatypes () ((t__ref (t__refqtmk (t__content us_rep)))))
(define-fun t__ref_t__content__projection ((a t__ref)) us_rep (t__content a))

(declare-const attr__ATTRIBUTE_ADDRESS Int)

(declare-const attr__ATTRIBUTE_ADDRESS1 Int)

(declare-fun init (tuple0) us_rep)

(declare-fun init__function_guard (us_rep tuple0) Bool)

(declare-fun get (us_rep) us_rep)

(declare-fun get__function_guard (us_rep us_rep) Bool)

(declare-const y us_rep)

(declare-const z us_rep)

;; Assume
  (assert true)

;; Assume
  (assert true)

;; Assume
  (assert true)

;; Assume
  (assert true)

(define-fun o () us_rep (init Tuple0))

;; H
  (assert (init__function_guard o Tuple0))

;; H
  (assert true)

(declare-const y1 us_rep)

;; H
  (assert (= y1 o))

(define-fun o1 () us_rep (get y1))

;; H
  (assert (get__function_guard o1 y1))

;; H
  (assert true)

;; H
  (assert (= (bool_eq o1 y1) true))

(declare-const z1 us_rep)

;; H
  (assert (= z1 o1))

(assert
;; defqtvc
 ;; File "q.adb", line 3, characters 0-0
  (not (= (bool_eq z1 y1) true)))
(check-sat)
